% File represents an instance of a Composite Structure problem to be solved by a CP framework
% Created on 2025-03-26 10:42:05.955
T = 50;
n = 36;
m = 60;
edges = [(1, 2),
(7, 8),
(13, 14),
(20, 19),
(25, 26),
(31, 32),
(2, 3),
(8, 9),
(14, 15),
(20, 21),
(27, 26),
(33, 32),
(3, 4),
(9, 10),
(15, 16),
(21, 22),
(27, 28),
(33, 34),
(4, 5),
(10, 11),
(16, 17),
(22, 23),
(28, 29),
(34, 35),
(5, 6),
(11, 12),
(17, 18),
(23, 24),
(29, 30),
(36, 35),
(7, 1),
(7, 13),
(13, 19),
(25, 19),
(25, 31),
(8, 2),
(8, 14),
(20, 14),
(20, 26),
(26, 32),
(9, 3),
(9, 15),
(21, 15),
(27, 21),
(27, 33),
(4, 10),
(16, 10),
(22, 16),
(28, 22),
(28, 34),
(5, 11),
(17, 11),
(23, 17),
(29, 23),
(29, 35),
(6, 12),
(18, 12),
(24, 18),
(30, 24),
(36, 30)];
counts = [|12, 16, 12, 6,
|12, 12, 12, 6,
|12, 6, 12, 6,
|12, 4, 12, 6,
|10, 4, 10, 4,
|10, 2, 10, 4,
|12, 20, 12, 6,
|12, 14, 12, 6,
|12, 8, 12, 6,
|12, 4, 12, 4,
|10, 4, 10, 2,
|8, 2, 8, 2,
|12, 18, 12, 4,
|12, 14, 12, 4,
|12, 8, 12, 4,
|12, 6, 12, 4,
|10, 6, 10, 2,
|10, 2, 10, 2,
|12, 12, 12, 4,
|14, 14, 14, 4,
|14, 8, 14, 4,
|12, 8, 12, 4,
|12, 6, 12, 2,
|12, 4, 12, 2,
|14, 14, 14, 4,
|14, 14, 14, 2,
|14, 14, 14, 4,
|14, 10, 14, 4,
|12, 8, 12, 4,
|12, 8, 12, 2,
|14, 10, 14, 4,
|14, 10, 14, 2,
|14, 12, 14, 4,
|14, 8, 14, 4,
|12, 6, 12, 4,
|12, 10, 12, 6|];
